CPXPARAM_TimeLimit                               3600
CPXPARAM_Read_DataCheck                          1
Parallel mode: deterministic, using up to 8 threads for concurrent optimization.
Tried aggregator 1 time.
No LP presolve or aggregator reductions.
Presolve time = 0.00 sec. (2.35 ticks)

Iteration log . . .
Iteration:     1   Dual objective     =           880.000000
Perturbation started.
Iteration:   101   Dual objective     =           880.000000
Iteration:   222   Dual objective     =           880.017893
Iteration:   434   Dual objective     =           880.025895
Iteration:   660   Dual objective     =           880.025898
Iteration:   885   Dual objective     =           880.025901
Iteration:  1114   Dual objective     =           880.025903
Iteration:  1350   Dual objective     =           880.025904
Iteration:  1583   Dual objective     =           880.025905
Iteration:  1822   Dual objective     =           880.025905
Removing perturbation.

Dual simplex solved model.

